38
Ad_SnMe3 | Ge→Sn scaled | from Ad_GeMe3_opt.xyz | 1-adamantyl-SnMe3
C       3.11113350      2.22400083     -0.62884542
Sn      2.92814000      0.07981000      0.03876000
C       0.76583283     -0.54016475     -0.09444833
C       4.14485333     -1.21853108     -1.34357183
C       3.67232283     -0.13836208      2.17816692
C       2.72319000      0.78368000      2.82739000
C       3.22706000      0.63533000      4.28002000
C       3.09970000     -0.83968000      4.72072000
C       3.95033000     -1.73212000      3.78963000
C       5.42990000     -1.29550000      3.86783000
C       5.55766000      0.17925000      3.42639000
C       4.70682000      1.07116000      4.35796000
C       5.05556000      0.32618000      1.97272000
C       3.44637000     -1.58575000      2.33642000
H       2.67381633      2.33369500     -1.83172825
H       4.34362333      2.58358225     -0.58852383
H       2.41747717      2.97699858      0.14691358
H       0.36287183     -0.42085642     -1.30843958
H       0.05482467      0.21195267      0.66641450
H       0.64499550     -1.76404817      0.27635733
H       3.71924692     -1.07391317     -2.54713808
H       4.02632108     -2.44897067     -0.99431117
H       5.38023900     -0.87126275     -1.28401033
H       1.65249000      0.48892000      2.77595000
H       2.79725000      1.84884000      2.51785000
H       2.61562000      1.27693000      4.95130000
H       2.03497000     -1.15651000      4.68044000
H       3.44582000     -0.95186000      5.77176000
H       3.85932000     -2.79310000      4.10802000
H       6.05150000     -1.94285000      3.21065000
H       5.80447000     -1.41269000      4.90896000
H       6.62249000      0.49272000      3.48399000
H       4.80468000      2.13714000      4.05511000
H       5.07268000      0.98253000      5.40454000
H       5.67995000     -0.30143000      1.30035000
H       5.16581000      1.38426000      1.64879000
H       2.38730000     -1.91827000      2.27734000
H       4.04621000     -2.24291000      1.66913000
