48
Ad_stannatrane | Ge→Sn scaled | from Ad_germatrane_opt.xyz | 1-adamantylstannatrane from germatrane_opt
Sn     -0.68097000      0.12303000      1.27574000
C      -2.74042875     -0.00924008      2.26087933
C      -3.51336000     -0.35976000      1.04762000
C      -4.89436000     -0.56607000      1.70743000
C      -4.80259000     -1.70282000      2.75075000
C      -3.77975000     -1.32164000      3.83679000
C      -4.20281000     -0.00951000      4.52905000
C      -4.28685000      1.12209000      3.47986000
C      -5.33054000      0.73830000      2.40318000
C      -2.89487000      1.32454000      2.82020000
C      -2.39422000     -1.12442000      3.18275000
O      -0.59833450      1.85486575      0.05697642
C       0.12959692      1.64520742     -1.39450792
C       1.52432000      1.09741000     -0.96275000
O       0.81619900      0.21639167      2.76527558
C       2.16458008      0.98255967      2.24126875
C       2.58252000      0.05092000      1.07784000
O      -0.62044708     -1.83111308      0.47850550
C       0.07040608     -1.98431425     -0.98043850
C       1.47770000     -1.46652000     -0.62996000
N       1.83325000     -0.11235000     -0.17732000
H      -3.22351000     -1.29866000      0.52791000
H      -3.57565000      0.44423000      0.28099000
H      -5.64039000     -0.84049000      0.92918000
H      -4.49517000     -2.65057000      2.25405000
H      -5.79777000     -1.87561000      3.21597000
H      -3.70954000     -2.13761000      4.59085000
H      -3.47266000      0.25937000      5.32180000
H      -5.19511000     -0.15422000      5.01597000
H      -4.60599000      2.06121000      3.98074000
H      -5.42207000      1.55524000      1.65579000
H      -6.32931000      0.59672000      2.87448000
H      -2.15413000      1.61471000      3.59624000
H      -2.95370000      2.14998000      2.07744000
H      -2.07950000     -2.07743000      2.70695000
H      -1.64204000     -0.87025000      3.96289000
H      -0.03872000      2.41343000     -1.55778000
H      -0.58455000      0.80641000     -1.69070000
H       2.03584000      1.97390000     -0.50780000
H       1.93632000      0.99333000     -1.98815000
H       1.55741000      1.89361000      1.75681000
H       2.44675000      0.98406000      2.98943000
H       2.85936000     -0.93180000      1.52090000
H       3.53925000      0.57154000      0.84771000
H      -0.58936000     -1.16756000     -1.44983000
H      -0.18064000     -2.75371000     -0.97468000
H       1.92458000     -1.66517000     -1.62582000
H       1.88151000     -2.22756000      0.07367000
