29
Ad_SnCl3 | Ge→Sn scaled | from Ad_GeCl3_opt.xyz | 1-adamantyl-SnCl3
Cl      4.18304392      2.22697725      0.94433542
Sn      3.34843000      0.10476000     -0.10135000
Cl      0.85379700      0.23214192     -0.33664225
Cl      4.37643925     -0.15361783     -2.37508883
C       3.90361917     -1.66742050      1.20741608
C       3.18865000     -1.25658000      2.42939000
C       3.56281000     -2.46124000      3.32081000
C       3.04056000     -3.76261000      2.67227000
C       3.68157000     -3.93819000      1.27746000
C       5.21782000     -4.01415000      1.42278000
C       5.74052000     -2.71209000      2.06983000
C       5.09927000     -2.53760000      3.46445000
C       5.36754000     -1.50723000      1.17690000
C       3.30774000     -2.73437000      0.38413000
H       2.08200000     -1.18949000      2.34070000
H       3.54794000     -0.31701000      2.90424000
H       3.10209000     -2.33626000      4.32472000
H       1.93309000     -3.72066000      2.57757000
H       3.29160000     -4.63361000      3.31666000
H       3.30636000     -4.87552000      0.81229000
H       5.68637000     -4.15558000      0.42409000
H       5.49549000     -4.88777000      2.05278000
H       6.84583000     -2.76804000      2.17445000
H       5.48154000     -1.60920000      3.94373000
H       5.37588000     -3.39368000      4.11830000
H       5.84378000     -1.62287000      0.17832000
H       5.75972000     -0.57144000      1.63267000
H       2.20287000     -2.69039000      0.26341000
H       3.75359000     -2.86830000     -0.62615000
