29
Ad_SnH3 | Ge→Sn scaled | from Ad_GeH3_opt.xyz | 1-adamantyl-SnH3
Sn      1.06744000      0.01904000      0.05741000
C       3.33288517      0.02069642      0.05721308
C       3.54312000      0.90000000      1.22046000
C       5.08832000      0.90034000      1.21989000
C       5.60320000     -0.54549000      1.39905000
C       5.08934000     -1.42493000      0.23707000
C       5.60327000     -0.85672000     -1.10484000
C       5.08813000      0.58896000     -1.28533000
C       5.60229000      1.46719000     -0.12249000
C       3.54318000      0.58835000     -1.28575000
C       3.54432000     -1.42627000      0.23719000
H       0.47811475      1.70171608     -0.15154175
H       0.47942367     -0.64193975      1.61942250
H       0.47962058     -1.00387258     -1.29563917
H       3.17041000      0.50852000      2.19294000
H       3.16969000      1.94219000      1.10913000
H       5.45912000      1.53243000      2.05584000
H       5.24890000     -0.95610000      2.37012000
H       6.71526000     -0.55186000      1.41536000
H       5.46095000     -2.46460000      0.36635000
H       5.24900000     -1.49269000     -1.94583000
H       6.71526000     -0.86688000     -1.11898000
H       5.45909000      0.99708000     -2.25051000
H       5.24760000      2.51336000     -0.25257000
H       6.71437000      1.48506000     -0.12476000
H       3.17051000     -0.02943000     -2.13276000
H       3.16963000      1.62595000     -1.43311000
H       3.17176000     -1.85130000      1.19558000
H       3.17171000     -2.07309000     -0.58788000
