42
beta_SH_NC3Sn_H | Ge→Sn scaled | from C3_beta_3x_CH2SH_NC3Ge_H.xyz | beta-CH2SH NC3Sn-H
Sn      0.00000000      0.00000000      1.42920100
C       2.20965983      0.00000000      0.80218474
C       2.24066600      0.19852800     -0.51443600
C       1.45395500     -0.02077100     -1.66604800
C      -1.10482992      1.91362227      0.80218474
C      -1.29226400      1.84121000     -0.51443600
C      -0.70898900      1.26954700     -1.66604800
C      -1.10482992     -1.91362227      0.80218474
C      -0.94840200     -2.03973800     -0.51443600
C      -0.74496500     -1.24877600     -1.66604800
N       0.00000000      0.00000000     -1.42920100
H       0.00000000      0.00000000      3.22484470
H       2.71307382     -1.04407881      1.15975413
H       2.77516743      0.89034828      1.40459221
H       2.49419400      0.97662600     -0.56611200
H       1.77418700     -0.87534300     -2.02687500
H       1.74034700      0.64482700     -2.32248500
H      -0.45233843      2.87163112      1.15975413
H      -2.15864799      1.95819146      1.40459221
H      -2.09288000      1.67172300     -0.56611200
H      -0.12902500      1.97416200     -2.02687500
H      -1.42861000      1.18477100     -2.32248500
H      -2.26073654     -1.82755115      1.15975413
H      -0.61651944     -2.84853974      1.40459221
H      -0.40131500     -2.64834900     -0.56611200
H      -1.64516200     -1.09882000     -2.02687500
H      -0.31173700     -1.82959800     -2.32248500
C       3.76469600      0.33356100     -0.51443600
H       3.30511400      1.32145500     -0.51443600
H       3.48597000     -0.71974800     -0.51443600
S       5.57759400      0.49418800     -0.51443600
H       6.17824100      0.54740700      0.67816400
C      -2.17122000      3.09354200     -0.51443600
H      -2.79697100      2.20158500     -0.51443600
H      -1.11966400      3.37881300     -0.51443600
S      -3.21677700      4.58324400     -0.51443600
H      -3.56318900      5.07681000      0.67816400
C      -1.59347500     -3.42710300     -0.51443600
H      -0.50814300     -3.52304000     -0.51443600
H      -2.36630500     -2.65906400     -0.51443600
S      -2.36081700     -5.07743200     -0.51443600
H      -2.61505200     -5.62421700      0.67816400
