30
NC3Sn_Cl | Ge→Sn scaled | from NC3Ge_Cl_parent_initial.xyz | tricarbastannatrane chloride
Sn      0.11578000      0.54777000      1.53691000
C      -0.40208767      2.16661033      0.02002617
C       0.04825000      1.61638000     -1.23748000
C       1.49956000      1.13728000     -1.48119000
C       2.30197200      0.73471342      2.28975717
C       3.10347000      1.07243000      1.16079000
C       3.19776000      0.07304000      0.01024000
C      -0.48758425     -1.53154258      0.76422058
C      -0.04219000     -1.60252000     -0.59217000
C       1.43421000     -1.39299000     -0.94943000
N       1.88563000     -0.02344000     -0.63376000
H       0.16064225      3.25075242      0.41273592
H      -1.67803817      2.34580450      0.05022392
H      -0.13711000      2.52564000     -1.84938000
H      -0.66662000      0.89472000     -1.63929000
H       2.14045000      2.01325000     -1.25239000
H       1.66222000      0.90625000     -2.55348000
H       2.60558275     -0.35394617      2.90263133
H       2.31297617      1.68621475      3.15749942
H       4.08496000      1.11574000      1.67921000
H       2.90017000      2.08926000      0.77403000
H       3.51720000     -0.89556000      0.45703000
H       3.97901000      0.37373000     -0.72350000
H      -1.76859667     -1.62095433      0.85782550
H       0.02991275     -2.39113017      1.56531233
H      -0.68647000     -1.06118000     -1.28999000
H      -0.30866000     -2.66618000     -0.77141000
H       1.62926000     -1.63347000     -2.02077000
H       1.98282000     -2.14137000     -0.34112000
Cl     -1.14279897      0.85837477      3.70392927
