21
CC(=O)Oc1ccccc1C(=O)O | molecule_id=MOLADT.RDKIT.BSYNRYMUTXBXSQ-UHFFFAOYSA-N | formula=C9H8O4
C 3.17897879 -0.91951993 -0.68611024
C 2.00136657 -0.29046937 -0.00316537
O 1.96249779 -0.01127438 1.18795101
O 1.00042365 -0.07639279 -0.94316152
C -0.15613601 0.46855790 -0.38069385
C -0.31288249 1.85401745 -0.51259841
C -1.44792313 2.47714232 0.00286677
C -2.42856592 1.71851173 0.63864902
C -2.27874669 0.33315116 0.75200862
C -1.14367097 -0.31300293 0.23424926
C -1.09517970 -1.78927643 0.38148857
O -1.90133087 -2.45774161 1.00577499
O -0.08568650 -2.38960842 -0.27143874
H 3.96011612 -1.12129362 0.05240950
H 2.88120579 -1.86681442 -1.14260069
H 3.57799687 -0.23653301 -1.44006129
H 0.45195978 2.44682059 -1.00690193
H -1.56639971 3.55414880 -0.08787742
H -3.31314231 2.20286091 1.04584901
H -3.05903937 -0.24353339 1.24677138
H -0.22584172 -3.33975058 -0.07340865