14
O=Cc1ccccc1 | molecule_id=MOLADT.RDKIT.HUMNYLRZRPPJDN-UHFFFAOYSA-N | formula=C7H6O
O 2.98809952 0.99944465 0.42888179
C 2.34758535 0.00238496 0.11992467
C 0.87292169 0.00410365 0.04548144
C 0.15600352 1.16917150 0.33206174
C -1.23713176 1.15938398 0.25856844
C -1.90856223 -0.01043337 -0.09984924
C -1.19044889 -1.17297343 -0.38565951
C 0.20368926 -1.16940239 -0.31385478
H 2.85062133 -0.94969360 -0.11846962
H 0.67862745 2.08162558 0.61158827
H -1.79840688 2.06372354 0.48076031
H -2.99470076 -0.01545120 -0.15642065
H -1.71957547 -2.08122160 -0.66433715
H 0.75127789 -2.08066227 -0.53867570