12
bromobenzene | molecule_id=MOLADT.BROMOBENZENE.001 | formula=C6H5Br
C 1.20983749 0.69850000 0.00000000
C 0.00000000 1.39700000 0.00000000
C -1.20983749 0.69850000 0.00000000
C -1.20983749 -0.69850000 0.00000000
C -0.00000000 -1.39700000 0.00000000
C 1.20983749 -0.69850000 0.00000000
H 0.00000000 2.47900000 0.00000000
H -2.14687698 1.23950000 0.00000000
H -2.14687698 -1.23950000 0.00000000
H -0.00000000 -2.47900000 0.00000000
H 2.14687698 -1.23950000 0.00000000
Br 2.86394601 1.65350000 0.00000000