15
toluene | molecule_id=MOLADT.TOLUENE.001 | formula=C7H8
C 1.20983749 0.69850000 0.00000000
C 0.00000000 1.39700000 0.00000000
C -1.20983749 0.69850000 0.00000000
C -1.20983749 -0.69850000 0.00000000
C -0.00000000 -1.39700000 0.00000000
C 1.20983749 -0.69850000 0.00000000
H 0.00000000 2.47900000 0.00000000
H -2.14687698 1.23950000 0.00000000
H -2.14687698 -1.23950000 0.00000000
H -0.00000000 -2.47900000 0.00000000
H 2.14687698 -1.23950000 0.00000000
C 1.31982272 0.76200000 0.00000000
H 1.31982272 0.76200000 1.09000000
H 1.31982272 1.79200000 -0.35000000
H 1.31982272 -0.26800000 -0.35000000