22
biphenyl | molecule_id=MOLADT.BIPHENYL.001 | formula=C12H10
C 1.20983749 0.69850000 0.00000000
C 0.00000000 1.39700000 0.00000000
C -1.20983749 0.69850000 0.00000000
C -1.20983749 -0.69850000 0.00000000
C -0.00000000 -1.39700000 0.00000000
C 1.20983749 -0.69850000 0.00000000
C 4.08683749 -0.69850000 0.00000000
C 2.87700000 -1.39700000 0.00000000
C 1.66716251 -0.69850000 0.00000000
C 1.66716251 0.69850000 0.00000000
C 2.87700000 1.39700000 0.00000000
C 4.08683749 0.69850000 0.00000000
H 0.00000000 2.47900000 0.00000000
H -2.14687698 1.23950000 0.00000000
H -2.14687698 -1.23950000 0.00000000
H -0.00000000 -2.47900000 0.00000000
H 2.14687698 -1.23950000 0.00000000
H 2.87700000 -2.47900000 0.00000000
H 0.73012302 -1.23950000 0.00000000
H 0.73012302 1.23950000 0.00000000
H 2.87700000 2.47900000 0.00000000
H 5.02387698 1.23950000 0.00000000