16
phenylboronic acid | molecule_id=MOLADT.PHENYLBORONIC_ACID.001 | formula=C6H7BO2
C 1.20983749 0.69850000 0.00000000
C 0.00000000 1.39700000 0.00000000
C -1.20983749 0.69850000 0.00000000
C -1.20983749 -0.69850000 0.00000000
C -0.00000000 -1.39700000 0.00000000
C 1.20983749 -0.69850000 0.00000000
H 0.00000000 2.47900000 0.00000000
H -2.14687698 1.23950000 0.00000000
H -2.14687698 -1.23950000 0.00000000
H -0.00000000 -2.47900000 0.00000000
H 2.14687698 -1.23950000 0.00000000
B 2.56083712 1.47850000 0.00000000
O 3.92083712 1.47850000 0.00000000
O 2.56083712 2.83850000 0.00000000
H 4.88083712 1.47850000 0.00000000
H 2.56083712 3.79850000 0.00000000