16
OC(=O)c1ccccc1O | molecule_id=MOLADT.RDKIT.YGSDEFSMJLZEOE-UHFFFAOYSA-N | formula=C7H6O3
O 2.61618851 0.77440898 -0.39600077
C 1.85225713 -0.27396856 -0.76850915
O 2.31507044 -1.16869920 -1.45106332
C 0.46086484 -0.18792374 -0.26230994
C -0.40875725 -1.23639187 -0.60030095
C -1.73465235 -1.22635027 -0.16064644
C -2.20148570 -0.16972934 0.61933191
C -1.34499970 0.87700191 0.96058806
C -0.02077052 0.86869649 0.52250980
O 0.74081782 1.93838500 0.90843451
H 3.48628078 0.56477337 -0.80505669
H -0.05656438 -2.06757531 -1.20894779
H -2.40197070 -2.04265184 -0.42698093
H -3.23304741 -0.15952399 0.96280889
H -1.70821654 1.70152635 1.56888624
H 1.63898503 1.80802202 0.53725657