38

C          3.08612        1.93091       -0.53759
Ge         2.92814        0.07981        0.03876
C          1.06140       -0.45542       -0.07624
C          3.97854       -1.04106       -1.15462
C          3.57060       -0.10854        1.88573
C          2.72319        0.78368        2.82739
C          3.22706        0.63533        4.28002
C          3.09970       -0.83968        4.72072
C          3.95033       -1.73212        3.78963
C          5.42990       -1.29550        3.86783
C          5.55766        0.17925        3.42639
C          4.70682        1.07116        4.35796
C          5.05556        0.32618        1.97272
C          3.44637       -1.58575        2.33642
H          2.70858        2.02561       -1.57605
H          4.15014        2.24134       -0.50278
H          2.48728        2.58098        0.13213
H          0.71352       -0.35242       -1.12429
H          0.44758        0.19389        0.58062
H          0.95708       -1.51201        0.24388
H          3.61111       -0.91621       -2.19367
H          3.87621       -2.10331       -0.85310
H          5.04506       -0.74126       -1.10320
H          1.65249        0.48892        2.77595
H          2.79725        1.84884        2.51785
H          2.61562        1.27693        4.95130
H          2.03497       -1.15651        4.68044
H          3.44582       -0.95186        5.77176
H          3.85932       -2.79310        4.10802
H          6.05150       -1.94285        3.21065
H          5.80447       -1.41269        4.90896
H          6.62249        0.49272        3.48399
H          4.80468        2.13714        4.05511
H          5.07268        0.98253        5.40454
H          5.67995       -0.30143        1.30035
H          5.16581        1.38426        1.64879
H          2.38730       -1.91827        2.27734
H          4.04621       -2.24291        1.66913
