29

Ge         1.06744        0.01904        0.05741
C          3.02322        0.02047        0.05724
C          3.54312        0.90000        1.22046
C          5.08832        0.90034        1.21989
C          5.60320       -0.54549        1.39905
C          5.08934       -1.42493        0.23707
C          5.60327       -0.85672       -1.10484
C          5.08813        0.58896       -1.28533
C          5.60229        1.46719       -0.12249
C          3.54318        0.58835       -1.28575
C          3.54432       -1.42627        0.23719
H          0.55867        1.47171       -0.12298
H          0.55980       -0.55159        1.40591
H          0.55997       -0.86405       -1.11069
H          3.17041        0.50852        2.19294
H          3.16969        1.94219        1.10913
H          5.45912        1.53243        2.05584
H          5.24890       -0.95610        2.37012
H          6.71526       -0.55186        1.41536
H          5.46095       -2.46460        0.36635
H          5.24900       -1.49269       -1.94583
H          6.71526       -0.86688       -1.11898
H          5.45909        0.99708       -2.25051
H          5.24760        2.51336       -0.25257
H          6.71437        1.48506       -0.12476
H          3.17051       -0.02943       -2.13276
H          3.16963        1.62595       -1.43311
H          3.17176       -1.85130        1.19558
H          3.17171       -2.07309       -0.58788
