29

Cl         4.06896        1.93689        0.80140
Ge         3.34843        0.10476       -0.10135
Cl         1.19479        0.21473       -0.30448
Cl         4.23592       -0.11830       -2.06429
C          3.82773       -1.42518        1.02852
C          3.18865       -1.25658        2.42939
C          3.56281       -2.46124        3.32081
C          3.04056       -3.76261        2.67227
C          3.68157       -3.93819        1.27746
C          5.21782       -4.01415        1.42278
C          5.74052       -2.71209        2.06983
C          5.09927       -2.53760        3.46445
C          5.36754       -1.50723        1.17690
C          3.30774       -2.73437        0.38413
H          2.08200       -1.18949        2.34070
H          3.54794       -0.31701        2.90424
H          3.10209       -2.33626        4.32472
H          1.93309       -3.72066        2.57757
H          3.29160       -4.63361        3.31666
H          3.30636       -4.87552        0.81229
H          5.68637       -4.15558        0.42409
H          5.49549       -4.88777        2.05278
H          6.84583       -2.76804        2.17445
H          5.48154       -1.60920        3.94373
H          5.37588       -3.39368        4.11830
H          5.84378       -1.62287        0.17832
H          5.75972       -0.57144        1.63267
H          2.20287       -2.69039        0.26341
H          3.75359       -2.86830       -0.62615
