48

Ge        -0.68097        0.12303        1.27574
C         -2.45892        0.00884        2.12622
C         -3.51336       -0.35976        1.04762
C         -4.89436       -0.56607        1.70743
C         -4.80259       -1.70282        2.75075
C         -3.77975       -1.32164        3.83679
C         -4.20281       -0.00951        4.52905
C         -4.28685        1.12209        3.47986
C         -5.33054        0.73830        2.40318
C         -2.89487        1.32454        2.82020
C         -2.39422       -1.12442        3.18275
O         -0.60963        1.61814        0.22357
C          0.01880        1.43714       -1.02951
C          1.52432        1.09741       -0.96275
O          0.61155        0.20363        2.56167
C          1.77562        0.86507        2.10929
C          2.58252        0.05092        1.07784
O         -0.62872       -1.56400        0.58748
C         -0.03230       -1.69626       -0.67204
C          1.47770       -1.46652       -0.62996
N          1.83325       -0.11235       -0.17732
H         -3.22351       -1.29866        0.52791
H         -3.57565        0.44423        0.28099
H         -5.64039       -0.84049        0.92918
H         -4.49517       -2.65057        2.25405
H         -5.79777       -1.87561        3.21597
H         -3.70954       -2.13761        4.59085
H         -3.47266        0.25937        5.32180
H         -5.19511       -0.15422        5.01597
H         -4.60599        2.06121        3.98074
H         -5.42207        1.55524        1.65579
H         -6.32931        0.59672        2.87448
H         -2.15413        1.61471        3.59624
H         -2.95370        2.14998        2.07744
H         -2.07950       -2.07743        2.70695
H         -1.64204       -0.87025        3.96289
H         -0.03872        2.41343       -1.55778
H         -0.58455        0.80641       -1.69070
H          2.03584        1.97390       -0.50780
H          1.93632        0.99333       -1.98815
H          1.55741        1.89361        1.75681
H          2.44675        0.98406        2.98943
H          2.85936       -0.93180        1.52090
H          3.53925        0.57154        0.84771
H         -0.58936       -1.16756       -1.44983
H         -0.18064       -2.75371       -0.97468
H          1.92458       -1.66517       -1.62582
H          1.88151       -2.22756        0.07367
