42
C3-idealized beta-3x(CH2OH)-NC3Ge-H; exact threefold repeated beta side arms; initial geometry, not optimized
Ge       0.000000       0.000000       1.429201
C        1.907620       0.000000       0.887892
C        2.240666       0.198528      -0.514436
C        1.453955      -0.020771      -1.666048
C       -0.953810       1.652048       0.887892
C       -1.292264       1.841210      -0.514436
C       -0.708989       1.269547      -1.666048
C       -0.953810      -1.652048       0.887892
C       -0.948402      -2.039738      -0.514436
C       -0.744965      -1.248776      -1.666048
N        0.000000       0.000000      -1.429201
H        0.000000       0.000000       2.979397
H        2.342222      -0.901363       1.196585
H        2.395828       0.768646       1.407956
H        2.494194       0.976626      -0.566112
H        1.774187      -0.875343      -2.026875
H        1.740347       0.644827      -2.322485
H       -0.390508       2.479106       1.196585
H       -1.863581       1.690525       1.407956
H       -2.092880       1.671723      -0.566112
H       -0.129025       1.974162      -2.026875
H       -1.428610       1.184771      -2.322485
H       -1.951715      -1.577742       1.196585
H       -0.532247      -2.459171       1.407956
H       -0.401315      -2.648349      -0.566112
H       -1.645162      -1.098820      -2.026875
H       -0.311737      -1.829598      -2.322485
C        3.764696       0.333561      -0.514436
H        3.305114       1.321455      -0.514436
H        3.485970      -0.719748      -0.514436
O        5.189116       0.459768      -0.514436
H        5.623912       0.498292       0.348864
C       -2.171220       3.093542      -0.514436
H       -2.796971       2.201585      -0.514436
H       -1.119664       3.378813      -0.514436
O       -2.992729       4.264022      -0.514436
H       -3.243490       4.621305       0.348864
C       -1.593475      -3.427103      -0.514436
H       -0.508143      -3.523040      -0.514436
H       -2.366305      -2.659064      -0.514436
O       -2.196387      -4.723790      -0.514436
H       -2.380422      -5.119597       0.348864
