30
C3-idealized NC3Ge-Cl parent; N-Ge axis is exact C3 axis; initial geometry, not optimized
Ge       0.000000       0.000000       1.429201
C        1.907620       0.000000       0.887892
C        2.240666       0.198528      -0.514436
C        1.453955      -0.020771      -1.666048
C       -0.953810       1.652048       0.887892
C       -1.292264       1.841210      -0.514436
C       -0.708989       1.269547      -1.666048
C       -0.953810      -1.652048       0.887892
C       -0.948402      -2.039738      -0.514436
C       -0.744965      -1.248776      -1.666048
N        0.000000       0.000000      -1.429201
Cl       0.000000       0.000000       3.609201
H        2.342222      -0.901363       1.196585
H        2.395828       0.768646       1.407956
H        2.933341      -0.249284      -0.646569
H        2.494194       0.976626      -0.566112
H        1.774187      -0.875343      -2.026875
H        1.740347       0.644827      -2.322485
H       -0.390508       2.479106       1.196585
H       -1.863581       1.690525       1.407956
H       -1.250784       2.664989      -0.646569
H       -2.092880       1.671723      -0.566112
H       -0.129025       1.974162      -2.026875
H       -1.428610       1.184771      -2.322485
H       -1.951715      -1.577742       1.196585
H       -0.532247      -2.459171       1.407956
H       -1.682556      -2.415706      -0.646569
H       -0.401315      -2.648349      -0.566112
H       -1.645162      -1.098820      -2.026875
H       -0.311737      -1.829598      -2.322485
