30
NC3Ge-Cl parent generated by replacing apical Ge-H with Ge-Cl along original Ge-H vector; initial geometry
Ge       0.115780       0.547770       1.536910
C       -0.331300       1.945330       0.227370
C        0.048250       1.616380      -1.237480
C        1.499560       1.137280      -1.481190
C        2.003140       0.709160       2.186850
C        3.103470       1.072430       1.160790
C        3.197760       0.073040       0.010240
C       -0.405110      -1.247320       0.869840
C       -0.042190      -1.602520      -0.592170
C        1.434210      -1.392990      -0.949430
N        1.885630      -0.023440      -0.633760
H        0.154510       2.881280       0.566400
H       -1.432840       2.100030       0.253440
H       -0.137110       2.525640      -1.849380
H       -0.666620       0.894720      -1.639290
H        2.140450       2.013250      -1.252390
H        1.662220       0.906250      -2.553480
H        2.265250      -0.230690       2.715950
H        2.012640       1.530600       2.935980
H        4.084960       1.115740       1.679210
H        2.900170       2.089260       0.774030
H        3.517200      -0.895560       0.457030
H        3.979010       0.373730      -0.723500
H       -1.511020      -1.324510       0.950650
H        0.041650      -1.989410       1.561430
H       -0.686470      -1.061180      -1.289990
H       -0.308660      -2.666180      -0.771410
H        1.629260      -1.633470      -2.020770
H        1.982820      -2.141370      -0.341120
Cl      -0.970763       0.815918       3.407718
