30

Ge         0.11578        0.54777        1.53691
C         -0.33130        1.94533        0.22737
C          0.04825        1.61638       -1.23748
C          1.49956        1.13728       -1.48119
C          2.00314        0.70916        2.18685
C          3.10347        1.07243        1.16079
C          3.19776        0.07304        0.01024
C         -0.40511       -1.24732        0.86984
C         -0.04219       -1.60252       -0.59217
C          1.43421       -1.39299       -0.94943
N          1.88563       -0.02344       -0.63376
H         -0.65686        0.73845        2.86724
H          0.15451        2.88128        0.56640
H         -1.43284        2.10003        0.25344
H         -0.13711        2.52564       -1.84938
H         -0.66662        0.89472       -1.63929
H          2.14045        2.01325       -1.25239
H          1.66222        0.90625       -2.55348
H          2.26525       -0.23069        2.71595
H          2.01264        1.53060        2.93598
H          4.08496        1.11574        1.67921
H          2.90017        2.08926        0.77403
H          3.51720       -0.89556        0.45703
H          3.97901        0.37373       -0.72350
H         -1.51102       -1.32451        0.95065
H          0.04165       -1.98941        1.56143
H         -0.68647       -1.06118       -1.28999
H         -0.30866       -2.66618       -0.77141
H          1.62926       -1.63347       -2.02077
H          1.98282       -2.14137       -0.34112
