21
ferrocene schematic MolADT | molecule_id=MOLADT.FERROCENE.001 | formula=C10H10Fe
Fe 0.00000000 0.00000000 0.00000000
C 0.00000000 1.42000000 1.67000000
C -1.35050025 0.43880413 1.67000000
C -0.83465506 -1.14880413 1.67000000
C 0.83465506 -1.14880413 1.67000000
C 1.35050025 0.43880413 1.67000000
H 0.00000000 2.48000000 1.92000000
H -2.35862016 0.76636215 1.92000000
H -1.45770743 -2.00636215 1.92000000
H 1.45770743 -2.00636215 1.92000000
H 2.35862016 0.76636215 1.92000000
C -0.83465506 1.14880413 -1.67000000
C -1.35050025 -0.43880413 -1.67000000
C -0.00000000 -1.42000000 -1.67000000
C 1.35050025 -0.43880413 -1.67000000
C 0.83465506 1.14880413 -1.67000000
H -1.45770743 2.00636215 -1.92000000
H -2.35862016 -0.76636215 -1.92000000
H -0.00000000 -2.48000000 -1.92000000
H 2.35862016 -0.76636215 -1.92000000
H 1.45770743 2.00636215 -1.92000000